p cnf 672 1455
1 2 0
3 2 0
4 2 0
-1 -3 -4 -2 0
-5 2 -6 0
6 -5 -2 0
5 -2 -6 0
6 5 2 0
-5 0
3 7 0
4 7 0
-3 -4 -7 0
7 -8 -9 0
8 -7 -9 0
9 -7 -8 0
8 7 9 0
-9 0
10 -4 0
4 -10 0
11 12 0
13 12 0
14 12 0
15 12 0
16 12 0
17 12 0
-18 0
12 -19 -20 0
19 -12 -20 0
20 -12 -19 0
19 12 20 0
-20 0
13 21 0
14 21 0
15 21 0
16 21 0
17 21 0
-22 0
21 -23 -24 0
23 -21 -24 0
24 -21 -23 0
23 21 24 0
-24 0
14 25 0
15 25 0
16 25 0
17 25 0
-26 0
25 -27 -28 0
27 -25 -28 0
28 -25 -27 0
27 25 28 0
-28 0
15 29 0
16 29 0
17 29 0
-15 -16 -17 -29 0
29 -30 -31 0
30 -29 -31 0
31 -29 -30 0
30 29 31 0
-31 0
16 32 0
17 32 0
-16 -17 -32 0
32 -33 -34 0
33 -32 -34 0
34 -32 -33 0
33 32 34 0
-34 0
32 -35 -36 0
35 -32 -36 0
36 -32 -35 0
35 32 36 0
-36 0
37 38 0
39 38 0
40 38 0
41 38 0
-42 0
38 -43 -44 0
43 -38 -44 0
44 -38 -43 0
43 38 44 0
-44 0
39 45 0
40 45 0
41 45 0
-39 -40 -41 -45 0
45 -46 -47 0
46 -45 -47 0
47 -45 -46 0
46 45 47 0
-47 0
40 48 0
41 48 0
-40 -41 -48 0
48 -49 -50 0
49 -48 -50 0
50 -48 -49 0
49 48 50 0
-50 0
48 -51 -52 0
51 -48 -52 0
52 -48 -51 0
51 48 52 0
-52 0
53 54 0
55 54 0
56 54 0
-53 -55 -56 -54 0
54 -57 -58 0
57 -54 -58 0
58 -54 -57 0
57 54 58 0
-58 0
55 59 0
56 59 0
-55 -56 -59 0
59 -60 -61 0
60 -59 -61 0
61 -59 -60 0
60 59 61 0
-61 0
59 -62 -63 0
62 -59 -63 0
63 -59 -62 0
62 59 63 0
-63 0
64 65 0
66 65 0
67 65 0
68 65 0
69 65 0
70 65 0
-71 0
65 -72 -73 0
72 -65 -73 0
73 -65 -72 0
72 65 73 0
-73 0
66 74 0
67 74 0
68 74 0
69 74 0
70 74 0
-75 0
74 -76 -77 0
76 -74 -77 0
77 -74 -76 0
76 74 77 0
-77 0
67 78 0
68 78 0
69 78 0
70 78 0
-79 0
78 -80 -81 0
80 -78 -81 0
81 -78 -80 0
80 78 81 0
-81 0
78 -82 -83 0
82 -78 -83 0
83 -78 -82 0
82 78 83 0
-83 0
78 -84 -85 0
84 -78 -85 0
85 -78 -84 0
84 78 85 0
-85 0
78 -86 -87 0
86 -78 -87 0
87 -78 -86 0
86 78 87 0
-87 0
88 89 0
90 89 0
91 89 0
92 89 0
-93 0
89 -94 -95 0
94 -89 -95 0
95 -89 -94 0
94 89 95 0
-95 0
90 96 0
91 96 0
92 96 0
-90 -91 -92 -96 0
96 -97 -98 0
97 -96 -98 0
98 -96 -97 0
97 96 98 0
-98 0
91 99 0
92 99 0
-91 -92 -99 0
99 -100 -101 0
100 -99 -101 0
101 -99 -100 0
100 99 101 0
-101 0
99 -102 -103 0
102 -99 -103 0
103 -99 -102 0
102 99 103 0
-103 0
104 105 0
106 105 0
107 105 0
-104 -106 -107 -105 0
105 -108 -109 0
108 -105 -109 0
109 -105 -108 0
108 105 109 0
-109 0
106 110 0
107 110 0
-106 -107 -110 0
110 -111 -112 0
111 -110 -112 0
112 -110 -111 0
111 110 112 0
-112 0
113 -107 0
107 -113 0
114 115 0
116 115 0
117 115 0
118 115 0
119 115 0
120 115 0
121 115 0
-122 0
115 -123 -124 0
123 -115 -124 0
124 -115 -123 0
123 115 124 0
-124 0
116 125 0
117 125 0
118 125 0
119 125 0
120 125 0
121 125 0
-126 0
125 -127 -128 0
127 -125 -128 0
128 -125 -127 0
127 125 128 0
-128 0
117 129 0
118 129 0
119 129 0
120 129 0
121 129 0
-130 0
129 -131 -132 0
131 -129 -132 0
132 -129 -131 0
131 129 132 0
-132 0
118 133 0
119 133 0
120 133 0
121 133 0
-134 0
133 -135 -136 0
135 -133 -136 0
136 -133 -135 0
135 133 136 0
-136 0
133 -137 -138 0
137 -133 -138 0
138 -133 -137 0
137 133 138 0
-138 0
133 -139 -140 0
139 -133 -140 0
140 -133 -139 0
139 133 140 0
-140 0
133 -141 -142 0
141 -133 -142 0
142 -133 -141 0
141 133 142 0
-142 0
143 144 0
145 144 0
146 144 0
-143 -145 -146 -144 0
144 -147 -148 0
147 -144 -148 0
148 -144 -147 0
147 144 148 0
-148 0
145 149 0
146 149 0
-145 -146 -149 0
149 -150 -151 0
150 -149 -151 0
151 -149 -150 0
150 149 151 0
-151 0
149 -152 -153 0
152 -149 -153 0
153 -149 -152 0
152 149 153 0
-153 0
154 155 0
156 155 0
157 155 0
-154 -156 -157 -155 0
155 -158 -159 0
158 -155 -159 0
159 -155 -158 0
158 155 159 0
-159 0
156 160 0
157 160 0
-156 -157 -160 0
160 -161 -162 0
161 -160 -162 0
162 -160 -161 0
161 160 162 0
-162 0
163 -157 0
157 -163 0
164 165 0
166 165 0
167 165 0
168 165 0
169 165 0
170 165 0
-171 0
-172 165 -173 0
172 -165 -173 0
173 -165 -172 0
172 165 173 0
-173 0
166 174 0
167 174 0
168 174 0
169 174 0
170 174 0
-175 0
174 -176 -177 0
176 -174 -177 0
177 -174 -176 0
176 174 177 0
-177 0
167 178 0
168 178 0
169 178 0
170 178 0
-179 0
178 -180 -181 0
180 -178 -181 0
181 -178 -180 0
180 178 181 0
-181 0
178 -182 -183 0
182 -178 -183 0
183 -178 -182 0
182 178 183 0
-183 0
178 -184 -185 0
184 -178 -185 0
185 -178 -184 0
184 178 185 0
-185 0
178 -186 -187 0
186 -178 -187 0
187 -178 -186 0
186 178 187 0
-187 0
188 189 0
190 189 0
191 189 0
192 189 0
193 189 0
194 189 0
-195 0
-196 189 -197 0
196 -189 -197 0
197 -189 -196 0
196 189 197 0
-197 0
190 198 0
191 198 0
192 198 0
193 198 0
194 198 0
-199 0
198 -200 -201 0
200 -198 -201 0
201 -198 -200 0
200 198 201 0
-201 0
191 202 0
192 202 0
193 202 0
194 202 0
-203 0
202 -204 -205 0
204 -202 -205 0
205 -202 -204 0
204 202 205 0
-205 0
192 206 0
193 206 0
194 206 0
-192 -193 -194 -206 0
206 -207 -208 0
207 -206 -208 0
208 -206 -207 0
207 206 208 0
-208 0
193 209 0
194 209 0
-193 -194 -209 0
209 -210 -211 0
210 -209 -211 0
211 -209 -210 0
210 209 211 0
-211 0
209 -212 -213 0
212 -209 -213 0
213 -209 -212 0
212 209 213 0
-213 0
214 215 0
216 215 0
217 215 0
218 215 0
219 215 0
220 215 0
-221 0
-222 215 -223 0
222 -215 -223 0
223 -215 -222 0
222 215 223 0
-223 0
216 224 0
217 224 0
218 224 0
219 224 0
220 224 0
-225 0
224 -226 -227 0
226 -224 -227 0
227 -224 -226 0
226 224 227 0
-227 0
217 228 0
218 228 0
219 228 0
220 228 0
-229 0
228 -230 -231 0
230 -228 -231 0
231 -228 -230 0
230 228 231 0
-231 0
218 232 0
219 232 0
220 232 0
-218 -219 -220 -232 0
232 -233 -234 0
233 -232 -234 0
234 -232 -233 0
233 232 234 0
-234 0
232 -235 -236 0
235 -232 -236 0
236 -232 -235 0
235 232 236 0
-236 0
232 -237 -238 0
237 -232 -238 0
238 -232 -237 0
237 232 238 0
-238 0
239 240 0
241 240 0
242 240 0
243 240 0
244 240 0
245 240 0
246 240 0
247 240 0
-248 0
-249 240 -250 0
249 -240 -250 0
250 -240 -249 0
249 240 250 0
-250 0
241 251 0
242 251 0
243 251 0
244 251 0
245 251 0
246 251 0
247 251 0
-252 0
251 -253 -254 0
253 -251 -254 0
254 -251 -253 0
253 251 254 0
-254 0
242 255 0
243 255 0
244 255 0
245 255 0
246 255 0
247 255 0
-256 0
255 -257 -258 0
257 -255 -258 0
258 -255 -257 0
257 255 258 0
-258 0
243 259 0
244 259 0
245 259 0
246 259 0
247 259 0
-260 0
259 -261 -262 0
261 -259 -262 0
262 -259 -261 0
261 259 262 0
-262 0
244 263 0
245 263 0
246 263 0
247 263 0
-264 0
263 -265 -266 0
265 -263 -266 0
266 -263 -265 0
265 263 266 0
-266 0
263 -267 -268 0
267 -263 -268 0
268 -263 -267 0
267 263 268 0
-268 0
263 -269 -270 0
269 -263 -270 0
270 -263 -269 0
269 263 270 0
-270 0
263 -271 -272 0
271 -263 -272 0
272 -263 -271 0
271 263 272 0
-272 0
273 274 0
275 274 0
276 274 0
277 274 0
-278 0
-279 274 -280 0
279 -274 -280 0
280 -274 -279 0
279 274 280 0
-280 0
275 281 0
276 281 0
277 281 0
-275 -276 -277 -281 0
281 -282 -283 0
282 -281 -283 0
283 -281 -282 0
282 281 283 0
-283 0
276 284 0
277 284 0
-276 -277 -284 0
284 -285 -286 0
285 -284 -286 0
286 -284 -285 0
285 284 286 0
-286 0
284 -287 -288 0
287 -284 -288 0
288 -284 -287 0
287 284 288 0
-288 0
289 290 0
291 290 0
292 290 0
293 290 0
294 290 0
-295 0
-296 290 -297 0
296 -290 -297 0
297 -290 -296 0
296 290 297 0
-297 0
291 298 0
292 298 0
293 298 0
294 298 0
-299 0
298 -300 -301 0
300 -298 -301 0
301 -298 -300 0
300 298 301 0
-301 0
292 302 0
293 302 0
294 302 0
-292 -293 -294 -302 0
302 -303 -304 0
303 -302 -304 0
304 -302 -303 0
303 302 304 0
-304 0
302 -305 -306 0
305 -302 -306 0
306 -302 -305 0
305 302 306 0
-306 0
302 -307 -308 0
307 -302 -308 0
308 -302 -307 0
307 302 308 0
-308 0
309 310 0
311 310 0
312 310 0
313 310 0
314 310 0
-315 0
-316 310 -317 0
316 -310 -317 0
317 -310 -316 0
316 310 317 0
-317 0
311 318 0
312 318 0
313 318 0
314 318 0
-319 0
318 -320 -321 0
320 -318 -321 0
321 -318 -320 0
320 318 321 0
-321 0
312 322 0
313 322 0
314 322 0
-312 -313 -314 -322 0
322 -323 -324 0
323 -322 -324 0
324 -322 -323 0
323 322 324 0
-324 0
313 325 0
314 325 0
-313 -314 -325 0
325 -326 -327 0
326 -325 -327 0
327 -325 -326 0
326 325 327 0
-327 0
325 -328 -329 0
328 -325 -329 0
329 -325 -328 0
328 325 329 0
-329 0
330 331 0
332 331 0
333 331 0
334 331 0
335 331 0
-336 0
-337 331 -338 0
337 -331 -338 0
338 -331 -337 0
337 331 338 0
-338 0
332 339 0
333 339 0
334 339 0
335 339 0
-340 0
339 -341 -342 0
341 -339 -342 0
342 -339 -341 0
341 339 342 0
-342 0
333 343 0
334 343 0
335 343 0
-333 -334 -335 -343 0
343 -344 -345 0
344 -343 -345 0
345 -343 -344 0
344 343 345 0
-345 0
343 -346 -347 0
346 -343 -347 0
347 -343 -346 0
346 343 347 0
-347 0
343 -348 -349 0
348 -343 -349 0
349 -343 -348 0
348 343 349 0
-349 0
350 351 0
352 351 0
353 351 0
354 351 0
-355 0
-356 351 -357 0
356 -351 -357 0
357 -351 -356 0
356 351 357 0
-357 0
352 358 0
353 358 0
354 358 0
-352 -353 -354 -358 0
358 -359 -360 0
359 -358 -360 0
360 -358 -359 0
359 358 360 0
-360 0
353 361 0
354 361 0
-353 -354 -361 0
361 -362 -363 0
362 -361 -363 0
363 -361 -362 0
362 361 363 0
-363 0
364 -354 0
354 -364 0
365 366 0
367 366 0
368 366 0
369 366 0
370 366 0
-371 0
-372 366 -373 0
372 -366 -373 0
373 -366 -372 0
372 366 373 0
-373 0
367 374 0
368 374 0
369 374 0
370 374 0
-375 0
374 -376 -377 0
376 -374 -377 0
377 -374 -376 0
376 374 377 0
-377 0
368 378 0
369 378 0
370 378 0
-368 -369 -370 -378 0
378 -379 -380 0
379 -378 -380 0
380 -378 -379 0
379 378 380 0
-380 0
378 -381 -382 0
381 -378 -382 0
382 -378 -381 0
381 378 382 0
-382 0
378 -383 -384 0
383 -378 -384 0
384 -378 -383 0
383 378 384 0
-384 0
385 -386 0
387 385 0
386 -387 -385 0
1 -385 0
-1 385 0
388 -389 0
390 388 0
389 -390 -388 0
3 -388 0
-3 388 0
391 -392 0
393 391 0
392 -393 -391 0
4 -391 0
-4 391 0
394 -395 0
396 394 0
395 -396 -394 0
11 -394 0
-11 394 0
397 -398 0
399 397 0
398 -399 -397 0
13 -397 0
-13 397 0
400 -401 0
402 400 0
401 -402 -400 0
14 -400 0
-14 400 0
403 -404 0
405 403 0
404 -405 -403 0
15 -403 0
-15 403 0
406 -407 0
408 406 0
407 -408 -406 0
16 -406 0
-16 406 0
409 -410 0
411 409 0
410 -411 -409 0
17 -409 0
-17 409 0
412 -413 0
414 412 0
413 -414 -412 0
37 -412 0
-37 412 0
415 -416 0
417 415 0
416 -417 -415 0
39 -415 0
-39 415 0
418 -419 0
420 418 0
419 -420 -418 0
40 -418 0
-40 418 0
421 -422 0
423 421 0
422 -423 -421 0
41 -421 0
-41 421 0
424 -425 0
426 424 0
425 -426 -424 0
53 -424 0
-53 424 0
427 -428 0
429 427 0
428 -429 -427 0
55 -427 0
-55 427 0
430 -431 0
432 430 0
431 -432 -430 0
56 -430 0
-56 430 0
433 -434 0
435 433 0
434 -435 -433 0
64 -433 0
-64 433 0
436 -437 0
438 436 0
437 -438 -436 0
66 -436 0
-66 436 0
439 -440 0
441 439 0
440 -441 -439 0
67 -439 0
-67 439 0
442 -443 0
444 442 0
443 -444 -442 0
68 -442 0
-68 442 0
445 -446 0
447 445 0
446 -447 -445 0
69 -445 0
-69 445 0
448 -449 0
450 448 0
449 -450 -448 0
70 -448 0
-70 448 0
451 -452 0
453 451 0
452 -453 -451 0
88 -451 0
-88 451 0
454 -455 0
456 454 0
455 -456 -454 0
90 -454 0
-90 454 0
457 -458 0
459 457 0
458 -459 -457 0
91 -457 0
-91 457 0
460 -461 0
462 460 0
461 -462 -460 0
92 -460 0
-92 460 0
463 -464 0
465 463 0
464 -465 -463 0
104 -463 0
-104 463 0
466 -467 0
468 466 0
467 -468 -466 0
106 -466 0
-106 466 0
469 -470 0
471 469 0
470 -471 -469 0
107 -469 0
-107 469 0
472 -473 0
474 472 0
473 -474 -472 0
114 -472 0
-114 472 0
475 -476 0
477 475 0
476 -477 -475 0
116 -475 0
-116 475 0
478 -479 0
480 478 0
479 -480 -478 0
117 -478 0
-117 478 0
481 -482 0
483 481 0
482 -483 -481 0
118 -481 0
-118 481 0
484 -485 0
486 484 0
485 -486 -484 0
119 -484 0
-119 484 0
487 -488 0
489 487 0
488 -489 -487 0
120 -487 0
-120 487 0
490 -491 0
492 490 0
491 -492 -490 0
121 -490 0
-121 490 0
493 -494 0
495 493 0
494 -495 -493 0
143 -493 0
-143 493 0
496 -497 0
498 496 0
497 -498 -496 0
145 -496 0
-145 496 0
499 -500 0
501 499 0
500 -501 -499 0
146 -499 0
-146 499 0
502 -503 0
504 502 0
503 -504 -502 0
154 -502 0
-154 502 0
505 -506 0
507 505 0
506 -507 -505 0
156 -505 0
-156 505 0
508 -509 0
510 508 0
509 -510 -508 0
157 -508 0
-157 508 0
511 -512 0
513 511 0
512 -513 -511 0
164 -511 0
-164 511 0
514 -515 0
516 514 0
515 -516 -514 0
166 -514 0
-166 514 0
517 -518 0
519 517 0
518 -519 -517 0
167 -517 0
-167 517 0
520 -521 0
522 520 0
521 -522 -520 0
168 -520 0
-168 520 0
523 -524 0
525 523 0
524 -525 -523 0
169 -523 0
-169 523 0
526 -527 0
528 526 0
527 -528 -526 0
170 -526 0
-170 526 0
529 -530 0
531 529 0
530 -531 -529 0
188 -529 0
-188 529 0
532 -533 0
534 532 0
533 -534 -532 0
190 -532 0
-190 532 0
535 -536 0
537 535 0
536 -537 -535 0
191 -535 0
-191 535 0
538 -539 0
540 538 0
539 -540 -538 0
192 -538 0
-192 538 0
541 -542 0
543 541 0
542 -543 -541 0
193 -541 0
-193 541 0
544 -545 0
546 544 0
545 -546 -544 0
194 -544 0
-194 544 0
547 -548 0
549 547 0
548 -549 -547 0
214 -547 0
-214 547 0
550 -551 0
552 550 0
551 -552 -550 0
216 -550 0
-216 550 0
553 -554 0
555 553 0
554 -555 -553 0
217 -553 0
-217 553 0
556 -557 0
558 556 0
557 -558 -556 0
218 -556 0
-218 556 0
559 -560 0
561 559 0
560 -561 -559 0
219 -559 0
-219 559 0
562 -563 0
564 562 0
563 -564 -562 0
220 -562 0
-220 562 0
565 -566 0
567 565 0
566 -567 -565 0
239 -565 0
-239 565 0
568 -569 0
570 568 0
569 -570 -568 0
241 -568 0
-241 568 0
571 -572 0
573 571 0
572 -573 -571 0
242 -571 0
-242 571 0
574 -575 0
576 574 0
575 -576 -574 0
243 -574 0
-243 574 0
577 -578 0
579 577 0
578 -579 -577 0
244 -577 0
-244 577 0
580 -581 0
582 580 0
581 -582 -580 0
245 -580 0
-245 580 0
583 -584 0
585 583 0
584 -585 -583 0
246 -583 0
-246 583 0
586 -587 0
588 586 0
587 -588 -586 0
247 -586 0
-247 586 0
589 -590 0
591 589 0
590 -591 -589 0
273 -589 0
-273 589 0
592 -593 0
594 592 0
593 -594 -592 0
275 -592 0
-275 592 0
595 -596 0
597 595 0
596 -597 -595 0
276 -595 0
-276 595 0
598 -599 0
600 598 0
599 -600 -598 0
277 -598 0
-277 598 0
601 -602 0
603 601 0
602 -603 -601 0
289 -601 0
-289 601 0
604 -605 0
606 604 0
605 -606 -604 0
291 -604 0
-291 604 0
607 -608 0
609 607 0
608 -609 -607 0
292 -607 0
-292 607 0
610 -611 0
612 610 0
611 -612 -610 0
293 -610 0
-293 610 0
613 -614 0
615 613 0
614 -615 -613 0
294 -613 0
-294 613 0
616 -617 0
618 616 0
617 -618 -616 0
309 -616 0
-309 616 0
619 -620 0
621 619 0
620 -621 -619 0
311 -619 0
-311 619 0
622 -623 0
624 622 0
623 -624 -622 0
312 -622 0
-312 622 0
625 -626 0
627 625 0
626 -627 -625 0
313 -625 0
-313 625 0
628 -629 0
630 628 0
629 -630 -628 0
314 -628 0
-314 628 0
631 -632 0
633 631 0
632 -633 -631 0
330 -631 0
-330 631 0
634 -635 0
636 634 0
635 -636 -634 0
332 -634 0
-332 634 0
637 -638 0
639 637 0
638 -639 -637 0
333 -637 0
-333 637 0
640 -641 0
642 640 0
641 -642 -640 0
334 -640 0
-334 640 0
643 -644 0
645 643 0
644 -645 -643 0
335 -643 0
-335 643 0
646 -647 0
648 646 0
647 -648 -646 0
350 -646 0
-350 646 0
649 -650 0
651 649 0
650 -651 -649 0
352 -649 0
-352 649 0
652 -653 0
654 652 0
653 -654 -652 0
353 -652 0
-353 652 0
655 -656 0
657 655 0
656 -657 -655 0
354 -655 0
-354 655 0
658 -659 0
660 658 0
659 -660 -658 0
365 -658 0
-365 658 0
661 -662 0
663 661 0
662 -663 -661 0
367 -661 0
-367 661 0
664 -665 0
666 664 0
665 -666 -664 0
368 -664 0
-368 664 0
667 -668 0
669 667 0
668 -669 -667 0
369 -667 0
-369 667 0
670 -671 0
672 670 0
671 -672 -670 0
370 -670 0
-370 670 0
387 0
-390 0
393 0
396 0
-399 0
-402 0
405 0
408 0
-411 0
-414 0
417 0
420 0
-423 0
-426 0
429 0
-432 0
-435 0
438 0
-441 0
-444 0
447 0
-450 0
-453 0
-456 0
459 0
-462 0
465 0
-468 0
471 0
-474 0
-477 0
480 0
-483 0
486 0
-489 0
-492 0
-495 0
-498 0
501 0
-504 0
-507 0
510 0
513 0
516 0
519 0
522 0
525 0
-528 0
531 0
-534 0
537 0
-540 0
-543 0
546 0
-549 0
552 0
555 0
-558 0
-561 0
564 0
-567 0
-570 0
573 0
-576 0
-579 0
582 0
-585 0
588 0
591 0
594 0
597 0
-600 0
-603 0
-606 0
609 0
-612 0
615 0
618 0
621 0
-624 0
627 0
-630 0
-633 0
636 0
639 0
-642 0
-645 0
-648 0
651 0
-654 0
657 0
660 0
-663 0
666 0
669 0
-672 0
6 0
19 0
43 0
57 0
72 0
94 0
108 0
123 0
147 0
158 0
-172 0
-196 0
-222 0
-249 0
-279 0
-296 0
-316 0
-337 0
-356 0
-372 0
386 -464 0
464 -386 0
389 -467 0
467 -389 0
392 -470 0
470 -392 0
392 -509 0
509 -392 0
392 -656 0
656 -392 0
401 -413 0
413 -401 0
404 -416 0
416 -404 0
407 -419 0
419 -407 0
410 -422 0
422 -410 0
407 -428 0
428 -407 0
410 -431 0
431 -410 0
407 -458 0
458 -407 0
410 -461 0
461 -410 0
407 -500 0
500 -407 0
410 -497 0
497 -410 0
419 -428 0
428 -419 0
422 -431 0
431 -422 0
419 -458 0
458 -419 0
422 -461 0
461 -422 0
419 -500 0
500 -419 0
422 -497 0
497 -422 0
425 -455 0
455 -425 0
428 -458 0
458 -428 0
431 -461 0
461 -431 0
428 -500 0
500 -428 0
431 -497 0
497 -431 0
440 -491 0
491 -440 0
443 -482 0
482 -443 0
446 -485 0
485 -446 0
449 -488 0
488 -449 0
458 -500 0
500 -458 0
461 -497 0
497 -461 0
470 -509 0
509 -470 0
470 -656 0
656 -470 0
506 -653 0
653 -506 0
509 -656 0
656 -509 0
542 -599 0
599 -542 0
545 -596 0
596 -545 0
